Minimize
 obj:  [ 12 x0_1 * x1_2 ]/2 +  [ 12 x1_1 * x0_2 ]/2 +  [ 12 x0_2 * x1_3 ]/2 +  [ 12 x1_2 * x0_3 ]/2 +  [ 12 x0_3 * x1_4 ]/2 +  [ 12 x1_3 * x0_4 ]/2 +  [ 12 x0_4 * x1_5 ]/2 +  [ 12 x1_4 * x0_5 ]/2 +  [ 12 x0_5 * x1_6 ]/2 +  [ 12 x1_5 * x0_6 ]/2 +  [ 12 x0_6 * x1_7 ]/2 +  [ 12 x1_6 * x0_7 ]/2 +  [ 26 x0_1 * x2_2 ]/2 +  [ 26 x2_1 * x0_2 ]/2 +  [ 26 x0_2 * x2_3 ]/2 +  [ 26 x2_2 * x0_3 ]/2 +  [ 26 x0_3 * x2_4 ]/2 +  [ 26 x2_3 * x0_4 ]/2 +  [ 26 x0_4 * x2_5 ]/2 +  [ 26 x2_4 * x0_5 ]/2 +  [ 26 x0_5 * x2_6 ]/2 +  [ 26 x2_5 * x0_6 ]/2 +  [ 26 x0_6 * x2_7 ]/2 +  [ 26 x2_6 * x0_7 ]/2 +  [ 36 x0_1 * x3_2 ]/2 +  [ 36 x3_1 * x0_2 ]/2 +  [ 36 x0_2 * x3_3 ]/2 +  [ 36 x3_2 * x0_3 ]/2 +  [ 36 x0_3 * x3_4 ]/2 +  [ 36 x3_3 * x0_4 ]/2 +  [ 36 x0_4 * x3_5 ]/2 +  [ 36 x3_4 * x0_5 ]/2 +  [ 36 x0_5 * x3_6 ]/2 +  [ 36 x3_5 * x0_6 ]/2 +  [ 36 x0_6 * x3_7 ]/2 +  [ 36 x3_6 * x0_7 ]/2 +  [ 16 x0_1 * x4_2 ]/2 +  [ 16 x4_1 * x0_2 ]/2 +  [ 16 x0_2 * x4_3 ]/2 +  [ 16 x4_2 * x0_3 ]/2 +  [ 16 x0_3 * x4_4 ]/2 +  [ 16 x4_3 * x0_4 ]/2 +  [ 16 x0_4 * x4_5 ]/2 +  [ 16 x4_4 * x0_5 ]/2 +  [ 16 x0_5 * x4_6 ]/2 +  [ 16 x4_5 * x0_6 ]/2 +  [ 16 x0_6 * x4_7 ]/2 +  [ 16 x4_6 * x0_7 ]/2 +  [ 4 x0_1 * x5_2 ]/2 +  [ 4 x5_1 * x0_2 ]/2 +  [ 4 x0_2 * x5_3 ]/2 +  [ 4 x5_2 * x0_3 ]/2 +  [ 4 x0_3 * x5_4 ]/2 +  [ 4 x5_3 * x0_4 ]/2 +  [ 4 x0_4 * x5_5 ]/2 +  [ 4 x5_4 * x0_5 ]/2 +  [ 4 x0_5 * x5_6 ]/2 +  [ 4 x5_5 * x0_6 ]/2 +  [ 4 x0_6 * x5_7 ]/2 +  [ 4 x5_6 * x0_7 ]/2 +  [ 38 x0_1 * x6_2 ]/2 +  [ 38 x6_1 * x0_2 ]/2 +  [ 38 x0_2 * x6_3 ]/2 +  [ 38 x6_2 * x0_3 ]/2 +  [ 38 x0_3 * x6_4 ]/2 +  [ 38 x6_3 * x0_4 ]/2 +  [ 38 x0_4 * x6_5 ]/2 +  [ 38 x6_4 * x0_5 ]/2 +  [ 38 x0_5 * x6_6 ]/2 +  [ 38 x6_5 * x0_6 ]/2 +  [ 38 x0_6 * x6_7 ]/2 +  [ 38 x6_6 * x0_7 ]/2 +  [ 38 x1_1 * x2_2 ]/2 +  [ 38 x2_1 * x1_2 ]/2 +  [ 38 x1_2 * x2_3 ]/2 +  [ 38 x2_2 * x1_3 ]/2 +  [ 38 x1_3 * x2_4 ]/2 +  [ 38 x2_3 * x1_4 ]/2 +  [ 38 x1_4 * x2_5 ]/2 +  [ 38 x2_4 * x1_5 ]/2 +  [ 38 x1_5 * x2_6 ]/2 +  [ 38 x2_5 * x1_6 ]/2 +  [ 38 x1_6 * x2_7 ]/2 +  [ 38 x2_6 * x1_7 ]/2 +  [ 36 x1_1 * x3_2 ]/2 +  [ 36 x3_1 * x1_2 ]/2 +  [ 36 x1_2 * x3_3 ]/2 +  [ 36 x3_2 * x1_3 ]/2 +  [ 36 x1_3 * x3_4 ]/2 +  [ 36 x3_3 * x1_4 ]/2 +  [ 36 x1_4 * x3_5 ]/2 +  [ 36 x3_4 * x1_5 ]/2 +  [ 36 x1_5 * x3_6 ]/2 +  [ 36 x3_5 * x1_6 ]/2 +  [ 36 x1_6 * x3_7 ]/2 +  [ 36 x3_6 * x1_7 ]/2 +  [ 36 x1_1 * x4_2 ]/2 +  [ 36 x4_1 * x1_2 ]/2 +  [ 36 x1_2 * x4_3 ]/2 +  [ 36 x4_2 * x1_3 ]/2 +  [ 36 x1_3 * x4_4 ]/2 +  [ 36 x4_3 * x1_4 ]/2 +  [ 36 x1_4 * x4_5 ]/2 +  [ 36 x4_4 * x1_5 ]/2 +  [ 36 x1_5 * x4_6 ]/2 +  [ 36 x4_5 * x1_6 ]/2 +  [ 36 x1_6 * x4_7 ]/2 +  [ 36 x4_6 * x1_7 ]/2 +  [ 2 x1_1 * x5_2 ]/2 +  [ 2 x5_1 * x1_2 ]/2 +  [ 2 x1_2 * x5_3 ]/2 +  [ 2 x5_2 * x1_3 ]/2 +  [ 2 x1_3 * x5_4 ]/2 +  [ 2 x5_3 * x1_4 ]/2 +  [ 2 x1_4 * x5_5 ]/2 +  [ 2 x5_4 * x1_5 ]/2 +  [ 2 x1_5 * x5_6 ]/2 +  [ 2 x5_5 * x1_6 ]/2 +  [ 2 x1_6 * x5_7 ]/2 +  [ 2 x5_6 * x1_7 ]/2 +  [ 38 x1_1 * x6_2 ]/2 +  [ 38 x6_1 * x1_2 ]/2 +  [ 38 x1_2 * x6_3 ]/2 +  [ 38 x6_2 * x1_3 ]/2 +  [ 38 x1_3 * x6_4 ]/2 +  [ 38 x6_3 * x1_4 ]/2 +  [ 38 x1_4 * x6_5 ]/2 +  [ 38 x6_4 * x1_5 ]/2 +  [ 38 x1_5 * x6_6 ]/2 +  [ 38 x6_5 * x1_6 ]/2 +  [ 38 x1_6 * x6_7 ]/2 +  [ 38 x6_6 * x1_7 ]/2 +  [ 32 x2_1 * x3_2 ]/2 +  [ 32 x3_1 * x2_2 ]/2 +  [ 32 x2_2 * x3_3 ]/2 +  [ 32 x3_2 * x2_3 ]/2 +  [ 32 x2_3 * x3_4 ]/2 +  [ 32 x3_3 * x2_4 ]/2 +  [ 32 x2_4 * x3_5 ]/2 +  [ 32 x3_4 * x2_5 ]/2 +  [ 32 x2_5 * x3_6 ]/2 +  [ 32 x3_5 * x2_6 ]/2 +  [ 32 x2_6 * x3_7 ]/2 +  [ 32 x3_6 * x2_7 ]/2 +  [ 36 x2_1 * x4_2 ]/2 +  [ 36 x4_1 * x2_2 ]/2 +  [ 36 x2_2 * x4_3 ]/2 +  [ 36 x4_2 * x2_3 ]/2 +  [ 36 x2_3 * x4_4 ]/2 +  [ 36 x4_3 * x2_4 ]/2 +  [ 36 x2_4 * x4_5 ]/2 +  [ 36 x4_4 * x2_5 ]/2 +  [ 36 x2_5 * x4_6 ]/2 +  [ 36 x4_5 * x2_6 ]/2 +  [ 36 x2_6 * x4_7 ]/2 +  [ 36 x4_6 * x2_7 ]/2 +  [ 32 x2_1 * x5_2 ]/2 +  [ 32 x5_1 * x2_2 ]/2 +  [ 32 x2_2 * x5_3 ]/2 +  [ 32 x5_2 * x2_3 ]/2 +  [ 32 x2_3 * x5_4 ]/2 +  [ 32 x5_3 * x2_4 ]/2 +  [ 32 x2_4 * x5_5 ]/2 +  [ 32 x5_4 * x2_5 ]/2 +  [ 32 x2_5 * x5_6 ]/2 +  [ 32 x5_5 * x2_6 ]/2 +  [ 32 x2_6 * x5_7 ]/2 +  [ 32 x5_6 * x2_7 ]/2 +  [ 26 x2_1 * x6_2 ]/2 +  [ 26 x6_1 * x2_2 ]/2 +  [ 26 x2_2 * x6_3 ]/2 +  [ 26 x6_2 * x2_3 ]/2 +  [ 26 x2_3 * x6_4 ]/2 +  [ 26 x6_3 * x2_4 ]/2 +  [ 26 x2_4 * x6_5 ]/2 +  [ 26 x6_4 * x2_5 ]/2 +  [ 26 x2_5 * x6_6 ]/2 +  [ 26 x6_5 * x2_6 ]/2 +  [ 26 x2_6 * x6_7 ]/2 +  [ 26 x6_6 * x2_7 ]/2 +  [ 8 x3_1 * x4_2 ]/2 +  [ 8 x4_1 * x3_2 ]/2 +  [ 8 x3_2 * x4_3 ]/2 +  [ 8 x4_2 * x3_3 ]/2 +  [ 8 x3_3 * x4_4 ]/2 +  [ 8 x4_3 * x3_4 ]/2 +  [ 8 x3_4 * x4_5 ]/2 +  [ 8 x4_4 * x3_5 ]/2 +  [ 8 x3_5 * x4_6 ]/2 +  [ 8 x4_5 * x3_6 ]/2 +  [ 8 x3_6 * x4_7 ]/2 +  [ 8 x4_6 * x3_7 ]/2 +  [ 40 x3_1 * x5_2 ]/2 +  [ 40 x5_1 * x3_2 ]/2 +  [ 40 x3_2 * x5_3 ]/2 +  [ 40 x5_2 * x3_3 ]/2 +  [ 40 x3_3 * x5_4 ]/2 +  [ 40 x5_3 * x3_4 ]/2 +  [ 40 x3_4 * x5_5 ]/2 +  [ 40 x5_4 * x3_5 ]/2 +  [ 40 x3_5 * x5_6 ]/2 +  [ 40 x5_5 * x3_6 ]/2 +  [ 40 x3_6 * x5_7 ]/2 +  [ 40 x5_6 * x3_7 ]/2 +  [ 24 x3_1 * x6_2 ]/2 +  [ 24 x6_1 * x3_2 ]/2 +  [ 24 x3_2 * x6_3 ]/2 +  [ 24 x6_2 * x3_3 ]/2 +  [ 24 x3_3 * x6_4 ]/2 +  [ 24 x6_3 * x3_4 ]/2 +  [ 24 x3_4 * x6_5 ]/2 +  [ 24 x6_4 * x3_5 ]/2 +  [ 24 x3_5 * x6_6 ]/2 +  [ 24 x6_5 * x3_6 ]/2 +  [ 24 x3_6 * x6_7 ]/2 +  [ 24 x6_6 * x3_7 ]/2 +  [ 22 x4_1 * x5_2 ]/2 +  [ 22 x5_1 * x4_2 ]/2 +  [ 22 x4_2 * x5_3 ]/2 +  [ 22 x5_2 * x4_3 ]/2 +  [ 22 x4_3 * x5_4 ]/2 +  [ 22 x5_3 * x4_4 ]/2 +  [ 22 x4_4 * x5_5 ]/2 +  [ 22 x5_4 * x4_5 ]/2 +  [ 22 x4_5 * x5_6 ]/2 +  [ 22 x5_5 * x4_6 ]/2 +  [ 22 x4_6 * x5_7 ]/2 +  [ 22 x5_6 * x4_7 ]/2 +  [ 22 x4_1 * x6_2 ]/2 +  [ 22 x6_1 * x4_2 ]/2 +  [ 22 x4_2 * x6_3 ]/2 +  [ 22 x6_2 * x4_3 ]/2 +  [ 22 x4_3 * x6_4 ]/2 +  [ 22 x6_3 * x4_4 ]/2 +  [ 22 x4_4 * x6_5 ]/2 +  [ 22 x6_4 * x4_5 ]/2 +  [ 22 x4_5 * x6_6 ]/2 +  [ 22 x6_5 * x4_6 ]/2 +  [ 22 x4_6 * x6_7 ]/2 +  [ 22 x6_6 * x4_7 ]/2 +  [ 22 x5_1 * x6_2 ]/2 +  [ 22 x6_1 * x5_2 ]/2 +  [ 22 x5_2 * x6_3 ]/2 +  [ 22 x6_2 * x5_3 ]/2 +  [ 22 x5_3 * x6_4 ]/2 +  [ 22 x6_3 * x5_4 ]/2 +  [ 22 x5_4 * x6_5 ]/2 +  [ 22 x6_4 * x5_5 ]/2 +  [ 22 x5_5 * x6_6 ]/2 +  [ 22 x6_5 * x5_6 ]/2 +  [ 22 x5_6 * x6_7 ]/2 +  [ 22 x6_6 * x5_7 ]/2
Subject To
 c1: x0_1 + x0_2 + x0_3 + x0_4 + x0_5 + x0_6 + x0_7 = 1
 c2: x1_1 + x1_2 + x1_3 + x1_4 + x1_5 + x1_6 + x1_7 = 1
 c3: x2_1 + x2_2 + x2_3 + x2_4 + x2_5 + x2_6 + x2_7 = 1
 c4: x3_1 + x3_2 + x3_3 + x3_4 + x3_5 + x3_6 + x3_7 = 1
 c5: x4_1 + x4_2 + x4_3 + x4_4 + x4_5 + x4_6 + x4_7 = 1
 c6: x5_1 + x5_2 + x5_3 + x5_4 + x5_5 + x5_6 + x5_7 = 1
 c7: x6_1 + x6_2 + x6_3 + x6_4 + x6_5 + x6_6 + x6_7 = 1
 c8: x0_1 + x1_1 + x2_1 + x3_1 + x4_1 + x5_1 + x6_1 = 1
 c9: x0_2 + x1_2 + x2_2 + x3_2 + x4_2 + x5_2 + x6_2 = 1
 c10: x0_3 + x1_3 + x2_3 + x3_3 + x4_3 + x5_3 + x6_3 = 1
 c11: x0_4 + x1_4 + x2_4 + x3_4 + x4_4 + x5_4 + x6_4 = 1
 c12: x0_5 + x1_5 + x2_5 + x3_5 + x4_5 + x5_5 + x6_5 = 1
 c13: x0_6 + x1_6 + x2_6 + x3_6 + x4_6 + x5_6 + x6_6 = 1
 c14: x0_7 + x1_7 + x2_7 + x3_7 + x4_7 + x5_7 + x6_7 = 1
 c15: x0_1 = 1
 c16: x6_7 = 1
Binary
 x0_1
 x0_2
 x0_3
 x0_4
 x0_5
 x0_6
 x0_7
 x1_1
 x1_2
 x1_3
 x1_4
 x1_5
 x1_6
 x1_7
 x2_1
 x2_2
 x2_3
 x2_4
 x2_5
 x2_6
 x2_7
 x3_1
 x3_2
 x3_3
 x3_4
 x3_5
 x3_6
 x3_7
 x4_1
 x4_2
 x4_3
 x4_4
 x4_5
 x4_6
 x4_7
 x5_1
 x5_2
 x5_3
 x5_4
 x5_5
 x5_6
 x5_7
 x6_1
 x6_2
 x6_3
 x6_4
 x6_5
 x6_6
 x6_7
End